c *********************************
c * Circuit generated by BenCGen
c *
c * RippleCarryAdderSubtractor_16_16_16_OutSunT
c *
c * Ports with 1 gate(s): 2
c * Ports with 2 gate(s): 98
c * Total gates: 100
c *********************************
p cnf 132 347
1 51 0
-1 -51 0
1 -50 0
51 -50 0
-1 -51 50 0
50 52 0
-50 -52 0
17 50 -53 0
-17 50 53 0
17 -50 53 0
-17 -50 -53 0
18 50 -54 0
-18 50 54 0
18 -50 54 0
-18 -50 -54 0
19 50 -55 0
-19 50 55 0
19 -50 55 0
-19 -50 -55 0
20 50 -56 0
-20 50 56 0
20 -50 56 0
-20 -50 -56 0
21 50 -57 0
-21 50 57 0
21 -50 57 0
-21 -50 -57 0
22 50 -58 0
-22 50 58 0
22 -50 58 0
-22 -50 -58 0
23 50 -59 0
-23 50 59 0
23 -50 59 0
-23 -50 -59 0
24 50 -60 0
-24 50 60 0
24 -50 60 0
-24 -50 -60 0
25 50 -61 0
-25 50 61 0
25 -50 61 0
-25 -50 -61 0
26 50 -62 0
-26 50 62 0
26 -50 62 0
-26 -50 -62 0
27 50 -63 0
-27 50 63 0
27 -50 63 0
-27 -50 -63 0
28 50 -64 0
-28 50 64 0
28 -50 64 0
-28 -50 -64 0
29 50 -65 0
-29 50 65 0
29 -50 65 0
-29 -50 -65 0
30 50 -66 0
-30 50 66 0
30 -50 66 0
-30 -50 -66 0
31 50 -67 0
-31 50 67 0
31 -50 67 0
-31 -50 -67 0
32 50 -68 0
-32 50 68 0
32 -50 68 0
-32 -50 -68 0
1 53 -70 0
-1 53 70 0
1 -53 70 0
-1 -53 -70 0
70 50 -33 0
-70 50 33 0
70 -50 33 0
-70 -50 -33 0
50 -71 0
70 -71 0
-50 -70 71 0
53 -72 0
1 -72 0
-53 -1 72 0
-71 69 0
-72 69 0
71 72 -69 0
2 54 -74 0
-2 54 74 0
2 -54 74 0
-2 -54 -74 0
74 69 -34 0
-74 69 34 0
74 -69 34 0
-74 -69 -34 0
69 -75 0
74 -75 0
-69 -74 75 0
54 -76 0
2 -76 0
-54 -2 76 0
-75 73 0
-76 73 0
75 76 -73 0
3 55 -78 0
-3 55 78 0
3 -55 78 0
-3 -55 -78 0
78 73 -35 0
-78 73 35 0
78 -73 35 0
-78 -73 -35 0
73 -79 0
78 -79 0
-73 -78 79 0
55 -80 0
3 -80 0
-55 -3 80 0
-79 77 0
-80 77 0
79 80 -77 0
4 56 -82 0
-4 56 82 0
4 -56 82 0
-4 -56 -82 0
82 77 -36 0
-82 77 36 0
82 -77 36 0
-82 -77 -36 0
77 -83 0
82 -83 0
-77 -82 83 0
56 -84 0
4 -84 0
-56 -4 84 0
-83 81 0
-84 81 0
83 84 -81 0
5 57 -86 0
-5 57 86 0
5 -57 86 0
-5 -57 -86 0
86 81 -37 0
-86 81 37 0
86 -81 37 0
-86 -81 -37 0
81 -87 0
86 -87 0
-81 -86 87 0
57 -88 0
5 -88 0
-57 -5 88 0
-87 85 0
-88 85 0
87 88 -85 0
6 58 -90 0
-6 58 90 0
6 -58 90 0
-6 -58 -90 0
90 85 -38 0
-90 85 38 0
90 -85 38 0
-90 -85 -38 0
85 -91 0
90 -91 0
-85 -90 91 0
58 -92 0
6 -92 0
-58 -6 92 0
-91 89 0
-92 89 0
91 92 -89 0
7 59 -94 0
-7 59 94 0
7 -59 94 0
-7 -59 -94 0
94 89 -39 0
-94 89 39 0
94 -89 39 0
-94 -89 -39 0
89 -95 0
94 -95 0
-89 -94 95 0
59 -96 0
7 -96 0
-59 -7 96 0
-95 93 0
-96 93 0
95 96 -93 0
8 60 -98 0
-8 60 98 0
8 -60 98 0
-8 -60 -98 0
98 93 -40 0
-98 93 40 0
98 -93 40 0
-98 -93 -40 0
93 -99 0
98 -99 0
-93 -98 99 0
60 -100 0
8 -100 0
-60 -8 100 0
-99 97 0
-100 97 0
99 100 -97 0
9 61 -102 0
-9 61 102 0
9 -61 102 0
-9 -61 -102 0
102 97 -41 0
-102 97 41 0
102 -97 41 0
-102 -97 -41 0
97 -103 0
102 -103 0
-97 -102 103 0
61 -104 0
9 -104 0
-61 -9 104 0
-103 101 0
-104 101 0
103 104 -101 0
10 62 -106 0
-10 62 106 0
10 -62 106 0
-10 -62 -106 0
106 101 -42 0
-106 101 42 0
106 -101 42 0
-106 -101 -42 0
101 -107 0
106 -107 0
-101 -106 107 0
62 -108 0
10 -108 0
-62 -10 108 0
-107 105 0
-108 105 0
107 108 -105 0
11 63 -110 0
-11 63 110 0
11 -63 110 0
-11 -63 -110 0
110 105 -43 0
-110 105 43 0
110 -105 43 0
-110 -105 -43 0
105 -111 0
110 -111 0
-105 -110 111 0
63 -112 0
11 -112 0
-63 -11 112 0
-111 109 0
-112 109 0
111 112 -109 0
12 64 -114 0
-12 64 114 0
12 -64 114 0
-12 -64 -114 0
114 109 -44 0
-114 109 44 0
114 -109 44 0
-114 -109 -44 0
109 -115 0
114 -115 0
-109 -114 115 0
64 -116 0
12 -116 0
-64 -12 116 0
-115 113 0
-116 113 0
115 116 -113 0
13 65 -118 0
-13 65 118 0
13 -65 118 0
-13 -65 -118 0
118 113 -45 0
-118 113 45 0
118 -113 45 0
-118 -113 -45 0
113 -119 0
118 -119 0
-113 -118 119 0
65 -120 0
13 -120 0
-65 -13 120 0
-119 117 0
-120 117 0
119 120 -117 0
14 66 -122 0
-14 66 122 0
14 -66 122 0
-14 -66 -122 0
122 117 -46 0
-122 117 46 0
122 -117 46 0
-122 -117 -46 0
117 -123 0
122 -123 0
-117 -122 123 0
66 -124 0
14 -124 0
-66 -14 124 0
-123 121 0
-124 121 0
123 124 -121 0
15 67 -126 0
-15 67 126 0
15 -67 126 0
-15 -67 -126 0
126 121 -47 0
-126 121 47 0
126 -121 47 0
-126 -121 -47 0
121 -127 0
126 -127 0
-121 -126 127 0
67 -128 0
15 -128 0
-67 -15 128 0
-127 125 0
-128 125 0
127 128 -125 0
16 68 -130 0
-16 68 130 0
16 -68 130 0
-16 -68 -130 0
130 125 -48 0
-130 125 48 0
130 -125 48 0
-130 -125 -48 0
125 -131 0
130 -131 0
-125 -130 131 0
68 -132 0
16 -132 0
-68 -16 132 0
-131 129 0
-132 129 0
131 132 -129 0
129 50 -49 0
-129 50 49 0
129 -50 49 0
-129 -50 -49 0
